NAME : XML100_1271_23
DIMENSION : 101
NB_CLUSTERS : 3
CLUSTERING_ALG : KMedoids
CLUSTERING_PARAMS : k(2)
CLUSTERS
1 0
2 9 11 15 19 20 21 23 27 28 31 33 35 36 37 38 41 42 43 45 46 48 49 51 54 55 58 62 66 67 70 71 74 77 78 79 80 81 82 83 84 85 86 87 89 91 93 97 98 100
3 1 2 3 4 5 6 7 8 10 12 13 14 16 17 18 22 24 25 26 29 30 32 34 39 40 44 47 50 52 53 56 57 59 60 61 63 64 65 68 69 72 73 75 76 88 90 92 94 95 96 99
EOF